NAME : mtspf
COMMENT : file for mtspf test
TYPE : ATSP
DIMENSION : 9
EDGE_WEIGHT_TYPE : EXPLICIT
EDGE_WEIGHT_FORMAT : FULL_MATRIX
EDGE_WEIGHT_SECTION
0 0 99999 99999 0 6 10 9 16 
99999 0 0 99999 10 5 10 15 6 
99999 99999 0 0 14 9 5 8 99999 
0 99999 99999 0 11 13 9 0 13 
0 99999 99999 99999 0 0 9 6 15 
0 0 0 0 5 0 0 9 10 
0 99999 0 0 9 4 0 5 6 
0 0 0 0 6 9 5 0 9 
0 0 0 0 15 10 6 9 0 
